NAME : rnd3_20.tsp
TYPE : TSP
DIMENSION : 20
EDGE_WEIGHT_TYPE : EUC_2D
NODE_COORD_SECTION
0 925 647
1 806 607
2 42 517
3 138 212
4 989 249
5 277 889
6 604 288
7 812 157
8 909 445
9 942 141
10 20 562
11 926 296
12 350 197
13 219 621
14 31 183
15 387 573
16 987 264
17 498 9
18 93 923
19 386 653
